language ESSENCE' 1.0

letting fixed be 
[
    [0,0,6,3,2,4,8,1,5],
    [8,5,0,6,9,1,0,7,0],
    [0,0,1,7,8,5,0,0,0],
    [0,0,4,0,3,7,6,8,0],
    [3,8,0,0,6,2,1,4,7],
    [0,6,7,4,1,8,3,5,0],
    [0,0,0,1,7,3,0,0,8],
    [0,0,0,8,4,6,0,2,1],
    [0,0,8,2,5,9,7,0,0]
]